3
30
8529
[[777,608,461,245,918,302,850,395, 66,942,858,792,520,679,856,527,516,170,926, 21,878,759,692,567,943,971,212,135,733,412],
 [287,696, 26,139, 26,588,539,684,993,159,615,943,280,113,639,889,396,865,291, 32,307,399, 55,851,210,589,531,349,998,693],
 [ 16,903,443,682,712, 61,308,626,441,795,305,164,259,900,131,787,892,842,556,658,257,540,454,944,329,744,379,542,521, 52]]
[109,354,987,916,739,402,906,935,871,794,628,404,143, 71,516,722,401,811,926,794,104,626,696,217,572,  7,546,887,969,  5]